benchmarks_vrp/CMT4/no_cluster/CMT4_1.vrp
NAME: CMT4_1
TYPE: CVRP
COMMENT: 1028.42 - Cluster Nr.1
DIMENSION: 18
CAPACITY: 200
EDGE_WEIGHT_TYPE: EUC_2D
NODE_COORD_TYPE: TWOD_COORDS
NODE_COORD_SECTION: 
16 25 24
2 35 35
5 22 22
12 32 22
1 19 21
9 28 18
6 24 12
4 27 23
10 30 5
8 20 20
13 30 15
14 23 3
3 21 10
11 25 21
7 35 17
15 30 25
17 32 12
18 36 16
DEPOT_SECTION: 
2
-1
DEMAND_SECTION: 
17 7
10 8
3 13
9 26
4 3
7 7
16 20
1 10
5 2
2 0
14 7
13 16
8 8
6 5
15 23
11 12
18 10
12 9
EOF
