benchmarks_vrp/CMT4/no_cluster/CMT4_1.tour
NAME: CMT4_1 solution
TYPE: TOUR
TOUR_SECTION:
2 12 9 13 7 18 17 10 14 3 6 8 1 5 11 16 4 15 -1
-1
EOF